(set-info :smt-lib-version 2.6)
(set-logic LRA)
(set-info :source |
   Scholl, Christoph; Disch, Stefan; Pigorsch, Florian and Kupferschmid, 
   Stefan; Using an SMT Solver and Craig Interpolation to Detect and Remove 
   Redundant Linear Constraints in Representations of Non-Convex Polyhedra.
   Proceedings of 6th International Workshop on Satisfiability Modulo
   Theories, Princeton, USA, July 2008.
   <http://abs.informatik.uni-freiburg.de/smtbench/>
|)
(set-info :category "random")
(set-info :status unsat)
(declare-fun y2 () Real)
(declare-fun y3 () Real)
(declare-fun y4 () Real)
(declare-fun x1 () Real)
(declare-fun y1 () Real)
(assert (and (and (exists ((?y2 Real)) (or (exists ((?y3 Real)) (exists ((?y4 Real)) (let ((?v_0 (* (- 41) ?y3))) (or (and (or (or (or (< (+ (+ (+ (* 56 ?y4) (* 55 ?y3)) (* 8 ?y2)) (* 25 x1)) (- 32)) (not (= (+ (+ (* (- 67) ?y4) ?v_0) (* 48 ?y2)) 0))) (and (= (+ (* (- 46) ?y3) (* 68 ?y2)) 84) (not (= (+ (* 1 ?y4) (* (- 3) ?y2)) (- 85))))) (and (or (= (+ (+ (* (- 30) ?y4) (* 95 ?y3)) (* (- 10) ?y2)) (- 48)) (not (= (+ (+ (* (- 8) ?y4) (* 89 ?y3)) (* (- 72) x1)) 0))) (and (<= (+ (+ (* 9 ?y4) (* 86 ?y2)) (* (- 19) x1)) 0) (= (+ (* 39 ?y3) (* 37 ?y2)) 84)))) (and (or (= (+ (+ (* (- 82) ?y4) (* 45 ?y3)) (* (- 97) ?y2)) 0) (or (<= (+ (+ (* 98 ?y4) (* 42 ?y3)) (* (- 66) x1)) 0) (<= (+ (* (- 99) ?y4) (* 40 x1)) 0))) (and (or (not (= (+ (+ (+ (* (- 43) ?y4) ?v_0) (* (- 84) ?y2)) (* 58 x1)) 0)) (= (+ (* (- 69) ?y3) (* 43 x1)) (- 63))) (and (= (+ (+ (* (- 47) ?y4) (* 16 ?y3)) (* 74 ?y2)) (- 60)) (>= (+ (+ (* 79 ?y4) (* (- 4) ?y2)) (* (- 33) x1)) (- 47)))))) (or (< (+ (* (- 51) ?y4) (* (- 87) ?y3)) 0) (or (and (<= (+ (+ (* 23 ?y3) (* (- 15) ?y2)) (* (- 87) x1)) 86) (= (* (- 84) x1) 0)) (or (= (+ (+ (* (- 55) ?y4) (* (- 48) ?y2)) (* 71 x1)) (- 61)) (= (+ (+ (* (- 87) ?y4) (* 53 ?y3)) (* 18 x1)) (- 94))))))))) (and (exists ((?y3 Real)) (or (or (and (not (= (+ (+ (* (- 89) ?y3) (* 73 ?y2)) (* 93 x1)) (- 25))) (and (<= (+ (* (- 19) ?y3) (* 52 x1)) (- 31)) (> (* 30 ?y2) 0))) (> (+ (* (- 13) ?y2) (* 58 x1)) 0)) (or (or (>= (+ (* 76 ?y3) (* (- 35) ?y2)) 0) (forall ((?y4 Real)) (and (= (+ (* (- 52) ?y2) (* (- 24) x1)) 54) (> (+ (+ (+ (* (- 44) ?y4) (* 86 ?y3)) (* (- 34) ?y2)) (* (- 14) x1)) 50)))) (or (exists ((?y4 Real)) (or (= (+ (* (- 63) ?y3) (* 51 ?y2)) 30) (<= (+ (+ (* (- 97) ?y4) (* (- 8) ?y2)) (* (- 20) x1)) 0))) (or (exists ((?y4 Real)) (>= (+ (+ (* 21 ?y4) (* 27 ?y3)) (* (- 77) x1)) 0)) (and (< (* (- 93) ?y3) 25) (< (+ (+ (* (- 59) ?y3) (* 75 ?y2)) (* 21 x1)) (- 32)))))))) (and (or (and (>= (* 84 ?y2) (- 86)) (= (+ (* 30 ?y2) (* 61 x1)) (- 15))) (= (+ (* (- 63) ?y2) (* (- 18) x1)) 0)) (and (or (> (+ (* (- 54) ?y2) (* 4 x1)) (- 88)) (>= (+ (* (- 75) ?y2) (* 9 x1)) 0)) (or (<= (+ (* 21 ?y2) (* 65 x1)) 57) (not (= (+ (* 60 ?y2) (* (- 36) x1)) 0)))))))) (exists ((?y2 Real)) (and (forall ((?y3 Real)) (and (and (and (forall ((?y4 Real)) (or (and (= (+ (+ (* (- 39) ?y4) (* (- 67) ?y3)) (* 12 x1)) (- 90)) (not (= (+ (* (- 77) ?y4) (* 44 ?y2)) 0))) (= (+ (+ (* (- 23) ?y4) (* 53 ?y3)) (* 40 x1)) 20))) (exists ((?y4 Real)) (or (and (not (= (+ (+ (* (- 16) ?y4) (* 93 ?y3)) (* 56 x1)) 0)) (not (= (+ (+ (* 79 ?y4) (* 42 ?y3)) (* 44 ?y2)) 0))) (or (not (= (+ (+ (* 36 ?y4) (* (- 34) ?y3)) (* (- 98) x1)) 0)) (>= (+ (+ (* (- 93) ?y4) (* 3 ?y3)) (* 39 ?y2)) 0))))) (forall ((?y4 Real)) (or (and (or (not (= (+ (+ (+ (* 72 ?y4) (* (- 34) ?y3)) (* 91 ?y2)) (* (- 15) x1)) 8)) (< (+ (+ (* (- 5) ?y3) (* 67 ?y2)) (* 55 x1)) 22)) (= (+ (+ (+ (* 50 ?y4) (* (- 59) ?y3)) (* (- 93) ?y2)) (* 25 x1)) 5)) (and (not (= (* (- 99) ?y4) 90)) (>= (+ (+ (+ (* (- 31) ?y4) (* (- 22) ?y3)) (* (- 60) ?y2)) (* 76 x1)) (- 23)))))) (and (forall ((?y4 Real)) (let ((?v_1 (* (- 28) ?y3))) (and (or (= (+ (* (- 11) ?y4) (* (- 65) ?y2)) (- 28)) (or (< (+ (+ (* (- 69) ?y4) ?v_1) (* 13 ?y2)) 91) (>= (+ (+ (* 93 ?y4) (* 41 ?y2)) (* 46 x1)) (- 59)))) (and (< (+ (+ (+ (* 44 ?y4) (* 16 ?y3)) (* (- 63) ?y2)) (* (- 48) x1)) 100) (= (+ ?v_1 (* 74 ?y2)) 0))))) (forall ((?y4 Real)) (and (< (* 93 ?y3) (- 41)) (not (= (+ (+ (* 14 ?y4) (* 40 ?y3)) (* 8 x1)) (- 43)))))))) (or (and (and (forall ((?y3 Real)) (exists ((?y4 Real)) (and (> (* 78 x1) 30) (and (>= (+ (+ (+ (* (- 4) ?y4) (* (- 68) ?y3)) (* (- 48) ?y2)) (* (- 79) x1)) (- 89)) (< (+ (+ (* (- 66) ?y4) (* (- 74) ?y3)) (* (- 83) x1)) 79))))) (exists ((?y3 Real)) (and (and (<= (* 26 ?y3) (- 46)) (>= (+ (* (- 75) ?y2) (* 34 x1)) 31)) (or (<= (+ (+ (* (- 81) ?y3) (* 58 ?y2)) (* (- 83) x1)) 56) (>= (+ (* (- 99) ?y2) (* 98 x1)) 22))))) (forall ((?y3 Real)) (and (or (or (forall ((?y4 Real)) (not (= (+ (+ (+ (* 36 ?y4) (* 62 ?y3)) (* (- 82) ?y2)) (* 73 x1)) 0))) (and (< (+ (* (- 24) ?y3) (* (- 18) ?y2)) (- 35)) (>= (+ (+ (* 11 ?y3) (* (- 84) ?y2)) (* 60 x1)) (- 47)))) (and (= (+ (+ (* 93 ?y3) (* (- 46) ?y2)) (* 37 x1)) 0) (and (<= (+ (* (- 64) ?y2) (* 53 x1)) (- 57)) (< (+ (* 6 ?y2) (* 98 x1)) (- 44))))) (and (forall ((?y4 Real)) (and (<= (+ (+ (* 79 ?y4) (* 97 ?y2)) (* (- 21) x1)) (- 36)) (< (+ (+ (+ (* 13 ?y4) (* 93 ?y3)) (* (- 38) ?y2)) (* 96 x1)) (- 65)))) (exists ((?y4 Real)) (or (not (= (+ (+ (* (- 36) ?y4) (* (- 98) ?y3)) (* 59 ?y2)) (- 10))) (> (+ (+ (* (- 70) ?y4) (* 27 ?y3)) (* 21 ?y2)) (- 31)))))))) (or (exists ((?y4 Real)) (or (and (< (+ (+ (* 93 ?y4) (* (- 57) ?y2)) (* 57 x1)) (- 71)) (not (= (* 63 x1) 98))) (and (or (>= (* 96 x1) 34) (= (+ (+ (* 78 ?y4) (* 71 ?y2)) (* (- 24) x1)) 0)) (and (> (+ (* (- 78) ?y4) (* 1 x1)) 0) (<= (+ (* (- 17) ?y4) (* 26 x1)) (- 100)))))) (and (forall ((?y4 Real)) (or (or (>= (+ (+ (* (- 55) ?y4) (* (- 16) ?y2)) (* 50 x1)) (- 5)) (< (+ (+ (* 88 ?y4) (* (- 4) ?y2)) (* 22 x1)) 0)) (or (= (+ (+ (* 83 ?y4) (* (- 62) ?y2)) (* (- 37) x1)) 0) (not (= (+ (+ (* (- 33) ?y4) (* (- 24) ?y2)) (* 24 x1)) (- 33)))))) (or (and (exists ((?y3 Real)) (< (+ (* (- 93) ?y3) (* 64 x1)) (- 89))) (and (<= (+ (* (- 9) ?y2) (* (- 51) x1)) 20) (and (> (* (- 12) ?y2) (- 64)) (<= (* (- 46) ?y2) 0)))) (and (< (+ (* 76 ?y2) (* 17 x1)) (- 41)) (not (= (* (- 25) x1) 0)))))))))) (and (and (and (exists ((?y1 Real)) (or (forall ((?y3 Real)) (or (exists ((?y4 Real)) (>= (+ (+ (+ (* 34 ?y4) (* 75 ?y3)) (* (- 32) ?y1)) (* (- 2) x1)) 0)) (and (and (>= (+ (* 38 ?y1) (* (- 50) x1)) 55) (<= (+ (* (- 43) ?y1) (* (- 83) x1)) 50)) (and (or (> (* 84 ?y1) 41) (> (+ (* 32 ?y3) (* 42 x1)) (- 46))) (and (> (+ (* 81 ?y1) (* 15 x1)) 2) (>= (+ (* 43 ?y3) (* 1 x1)) 94)))))) (or (or (and (exists ((?y3 Real)) (forall ((?y4 Real)) (= (+ (+ (* (- 19) ?y4) (* 29 ?y3)) (* (- 93) x1)) 63))) (forall ((?y3 Real)) (or (>= (+ (* 46 ?y3) (* 7 ?y1)) 100) (> (* (- 19) ?y3) 50)))) (exists ((?y3 Real)) (and (exists ((?y4 Real)) (= (* 98 ?y4) 33)) (> (+ (+ (* 10 ?y3) (* (- 21) ?y1)) (* (- 80) x1)) (- 93))))) (exists ((?y3 Real)) (forall ((?y4 Real)) (and (< (+ (+ (* 85 ?y4) (* (- 70) ?y3)) (* (- 98) ?y1)) (- 8)) (or (>= (+ (+ (* (- 55) ?y4) (* 96 ?y1)) (* (- 73) x1)) 0) (<= (+ (+ (* 60 ?y4) (* (- 7) ?y1)) (* (- 42) x1)) 42)))))))) (forall ((?y1 Real)) (and (and (exists ((?y4 Real)) (< (+ (+ (* 54 ?y4) (* 11 ?y1)) (* 18 x1)) 0)) (and (forall ((?y2 Real)) (exists ((?y4 Real)) (or (not (= (+ (+ (+ (* 25 ?y4) (* (- 31) ?y2)) (* 72 ?y1)) (* (- 98) x1)) 0)) (> (+ (+ (+ (* 1 ?y4) (* 26 ?y2)) (* 2 ?y1)) (* (- 74) x1)) (- 61))))) (or (and (and (<= (+ (* 51 ?y1) (* 50 x1)) (- 45)) (< (+ (* (- 20) ?y1) (* 38 x1)) (- 32))) (and (>= (+ (* (- 46) ?y1) (* (- 84) x1)) 97) (<= (+ (* 63 ?y1) (* (- 59) x1)) 0))) (exists ((?y2 Real)) (forall ((?y3 Real)) (forall ((?y4 Real)) (= (+ (+ (+ (* (- 66) ?y4) (* (- 3) ?y2)) (* (- 89) ?y1)) (* (- 16) x1)) 14))))))) (exists ((?y2 Real)) (forall ((?y3 Real)) (and (or (and (> (+ (+ (* (- 33) ?y3) (* (- 92) ?y2)) (* 66 ?y1)) (- 100)) (not (= (+ (* 37 ?y2) (* (- 52) x1)) 0))) (and (>= (+ (+ (+ (* 81 ?y3) (* 30 ?y2)) (* (- 74) ?y1)) (* 84 x1)) (- 20)) (= (+ (+ (* (- 30) ?y3) (* 26 ?y2)) (* 59 ?y1)) (- 81)))) (or (<= (+ (+ (+ (* (- 55) ?y3) (* 31 ?y2)) (* 47 ?y1)) (* (- 79) x1)) 74) (and (> (+ (+ (+ (* (- 94) ?y3) (* 49 ?y2)) (* (- 39) ?y1)) (* (- 19) x1)) (- 67)) (< (+ (+ (+ (* (- 60) ?y3) (* (- 16) ?y2)) (* 5 ?y1)) (* 33 x1)) 88))))))))) (or (forall ((?y1 Real)) (forall ((?y2 Real)) (exists ((?y3 Real)) (or (or (and (not (= (+ (+ (+ (* 32 ?y3) (* (- 33) ?y2)) (* 46 ?y1)) (* 84 x1)) (- 9))) (< (+ (* 75 ?y3) (* 6 ?y1)) 82)) (and (> (+ (+ (* (- 62) ?y3) (* 7 ?y2)) (* 17 x1)) 6) (not (= (+ (+ (* 2 ?y2) (* (- 40) ?y1)) (* (- 89) x1)) (- 78))))) (and (and (exists ((?y4 Real)) (or (>= (+ (+ (+ (* (- 86) ?y4) (* 78 ?y3)) (* 69 ?y1)) (* (- 40) x1)) (- 62)) (< (+ (+ (+ (* 24 ?y4) (* (- 75) ?y2)) (* (- 75) ?y1)) (* 97 x1)) 0))) (forall ((?y4 Real)) (or (not (= (+ (+ (+ (* (- 14) ?y4) (* 73 ?y2)) (* (- 74) ?y1)) (* (- 29) x1)) 84)) (<= (+ (+ (* (- 7) ?y4) (* (- 56) ?y3)) (* 44 ?y2)) (- 73))))) (exists ((?y4 Real)) (and (and (<= (+ (+ (+ (* (- 25) ?y4) (* 83 ?y3)) (* (- 35) ?y1)) (* (- 32) x1)) (- 73)) (< (+ (+ (* 37 ?y4) (* 98 ?y2)) (* (- 29) x1)) 0)) (and (= (+ (+ (+ (* (- 29) ?y4) (* 97 ?y2)) (* (- 62) ?y1)) (* 57 x1)) (- 88)) (not (= (+ (+ (+ (* (- 3) ?y3) (* (- 15) ?y2)) (* (- 41) ?y1)) (* (- 86) x1)) (- 87))))))))))) (exists ((?y1 Real)) (or (and (forall ((?y2 Real)) (exists ((?y3 Real)) (or (or (<= (+ (+ (+ (* 68 ?y3) (* 75 ?y2)) (* (- 26) ?y1)) (* 62 x1)) (- 54)) (> (+ (* (- 68) ?y2) (* (- 63) ?y1)) (- 82))) (exists ((?y4 Real)) (or (> (+ (+ (* (- 22) ?y3) (* (- 2) ?y1)) (* (- 83) x1)) 3) (> (+ (+ (+ (* 88 ?y4) (* (- 98) ?y2)) (* 62 ?y1)) (* 32 x1)) 0)))))) (or (or (>= (* (- 29) x1) 0) (>= (* (- 96) x1) 0)) (exists ((?y3 Real)) (and (<= (+ (+ (* 84 ?y3) (* (- 66) ?y1)) (* (- 26) x1)) 35) (> (+ (+ (* (- 77) ?y3) (* (- 55) ?y1)) (* 13 x1)) 0))))) (or (exists ((?y3 Real)) (forall ((?y4 Real)) (and (<= (+ (* 18 ?y4) (* 87 ?y1)) 0) (>= (+ (+ (+ (* 44 ?y4) (* (- 4) ?y3)) (* (- 99) ?y1)) (* (- 49) x1)) 28)))) (exists ((?y2 Real)) (or (or (forall ((?y3 Real)) (and (< (+ (+ (* 96 ?y3) (* 76 ?y2)) (* (- 82) ?y1)) (- 71)) (> (+ (+ (* 17 ?y3) (* (- 46) ?y1)) (* (- 4) x1)) 0))) (forall ((?y3 Real)) (exists ((?y4 Real)) (= (+ (+ (+ (* 33 ?y4) (* (- 59) ?y3)) (* (- 86) ?y1)) (* (- 85) x1)) 0)))) (or (forall ((?y3 Real)) (exists ((?y4 Real)) (= (+ (+ (+ (* (- 25) ?y4) (* 99 ?y3)) (* 23 ?y1)) (* (- 22) x1)) 0))) (forall ((?y3 Real)) (exists ((?y4 Real)) (> (+ (+ (+ (* 75 ?y4) (* (- 22) ?y2)) (* (- 36) ?y1)) (* 40 x1)) 0))))))))))) (or (forall ((?y1 Real)) (exists ((?y3 Real)) (and (and (forall ((?y4 Real)) (or (and (and (<= (+ (+ (* 23 ?y3) (* (- 54) ?y1)) (* (- 95) x1)) (- 81)) (>= (+ (+ (+ (* 94 ?y4) (* (- 68) ?y3)) (* 78 ?y1)) (* (- 34) x1)) 0)) (and (not (= (+ (+ (+ (* (- 43) ?y4) (* (- 8) ?y3)) (* 41 ?y1)) (* (- 4) x1)) 0)) (< (+ (+ (* 53 ?y3) (* 94 ?y1)) (* 44 x1)) (- 11)))) (and (or (<= (+ (+ (* (- 10) ?y4) (* (- 26) ?y3)) (* (- 1) x1)) (- 81)) (not (= (+ (* (- 79) ?y3) (* 39 ?y1)) 0))) (or (< (+ (+ (* 29 ?y4) (* (- 17) ?y3)) (* (- 91) ?y1)) (- 41)) (= (+ (+ (+ (* 25 ?y4) (* 28 ?y3)) (* 13 ?y1)) (* 46 x1)) 0))))) (or (or (not (= (+ (+ (* (- 39) ?y3) (* (- 14) ?y1)) (* (- 83) x1)) 0)) (or (or (> (+ (+ (* 23 ?y3) (* (- 63) ?y1)) (* (- 88) x1)) 62) (not (= (+ (* (- 35) ?y3) (* 67 ?y1)) (- 13)))) (exists ((?y4 Real)) (>= (+ (+ (+ (* (- 52) ?y4) (* 66 ?y3)) (* 27 ?y1)) (* 96 x1)) 0)))) (and (< (+ (+ (* (- 59) ?y3) (* 77 ?y1)) (* 39 x1)) (- 74)) (or (> (+ (* 17 ?y3) (* (- 28) ?y1)) (- 78)) (< (+ (* 43 ?y3) (* 64 ?y1)) 0))))) (and (or (and (<= (* (- 39) x1) 0) (> (+ (+ (* (- 21) ?y3) (* (- 99) ?y1)) (* 34 x1)) (- 91))) (and (not (= (* (- 51) x1) (- 34))) (> (+ (* (- 49) ?y3) (* 42 ?y1)) (- 85)))) (and (< (* 84 x1) 0) (< (* 61 ?y1) 0)))))) (and (or (exists ((?y1 Real)) (or (exists ((?y2 Real)) (or (and (<= (+ (* 41 ?y1) (* (- 20) x1)) 53) (< (+ (+ (* 34 ?y2) (* 97 ?y1)) (* 42 x1)) 100)) (or (exists ((?y4 Real)) (> (+ (+ (+ (* (- 50) ?y4) (* (- 18) ?y2)) (* (- 87) ?y1)) (* 4 x1)) 65)) (forall ((?y4 Real)) (< (+ (+ (* 93 ?y2) (* 30 ?y1)) (* 63 x1)) (- 71)))))) (exists ((?y2 Real)) (forall ((?y3 Real)) (and (forall ((?y4 Real)) (and (<= (+ (+ (* (- 16) ?y2) (* 7 ?y1)) (* 87 x1)) 80) (= (+ (+ (+ (* (- 4) ?y4) (* (- 2) ?y3)) (* (- 9) ?y2)) (* 36 ?y1)) 62))) (or (exists ((?y4 Real)) (>= (+ (+ (+ (+ (* 32 ?y4) (* 1 ?y3)) (* (- 19) ?y2)) (* (- 58) ?y1)) (* 54 x1)) 28)) (forall ((?y4 Real)) (>= (+ (+ (+ (+ (* (- 37) ?y4) (* 22 ?y3)) (* (- 27) ?y2)) (* (- 100) ?y1)) (* (- 77) x1)) 43)))))))) (and (exists ((?y1 Real)) (exists ((?y2 Real)) (and (or (exists ((?y4 Real)) (>= (+ (* (- 56) ?y4) (* (- 37) x1)) 1)) (forall ((?y4 Real)) (>= (* 44 ?y4) 0))) (exists ((?y3 Real)) (and (exists ((?y4 Real)) (< (+ (+ (+ (+ (* (- 42) ?y4) (* (- 29) ?y3)) (* (- 1) ?y2)) (* 24 ?y1)) (* (- 42) x1)) 91)) (forall ((?y4 Real)) (> (+ (+ (+ (* 17 ?y4) (* 8 ?y3)) (* 58 ?y2)) (* (- 9) ?y1)) (- 18)))))))) (or (and (exists ((?y1 Real)) (forall ((?y2 Real)) (exists ((?y3 Real)) (forall ((?y4 Real)) (<= (+ (+ (+ (* 67 ?y3) (* (- 5) ?y2)) (* 59 ?y1)) (* (- 65) x1)) (- 52)))))) (forall ((?y2 Real)) (or (not (= (* (- 63) x1) (- 57))) (>= (* 18 ?y2) 22)))) (or (and (> (* (- 64) x1) 0) (and (not (= (* 15 x1) 93)) (<= (* 5 x1) (- 37)))) (forall ((?y1 Real)) (forall ((?y3 Real)) (or (>= (+ (+ (* 2 ?y3) (* 68 ?y1)) (* (- 80) x1)) 0) (<= (+ (+ (* (- 9) ?y3) (* 63 ?y1)) (* 36 x1)) 0)))))))) (or (exists ((?y1 Real)) (or (and (and (= (+ (* 50 ?y1) (* (- 86) x1)) 3) (= (+ (* (- 53) ?y1) (* (- 29) x1)) 87)) (>= (* (- 94) ?y1) (- 8))) (and (exists ((?y3 Real)) (and (<= (+ (* 71 ?y3) (* (- 72) x1)) 47) (<= (+ (* (- 34) ?y1) (* 96 x1)) 29))) (and (and (exists ((?y3 Real)) (not (= (+ (+ (* (- 42) ?y3) (* 81 ?y1)) (* 58 x1)) (- 67)))) (exists ((?y3 Real)) (<= (+ (+ (* 48 ?y3) (* 23 ?y1)) (* (- 65) x1)) 57))) (exists ((?y3 Real)) (exists ((?y4 Real)) (<= (+ (+ (* 97 ?y4) (* 22 ?y1)) (* 65 x1)) (- 12)))))))) (forall ((?y1 Real)) (forall ((?y2 Real)) (or (forall ((?y4 Real)) (or (and (>= (+ (* (- 19) ?y4) (* 1 x1)) 0) (>= (+ (+ (* 16 ?y2) (* (- 69) ?y1)) (* 16 x1)) 70)) (and (>= (+ (+ (+ (* 54 ?y4) (* 51 ?y2)) (* 2 ?y1)) (* (- 27) x1)) (- 62)) (> (+ (+ (* 30 ?y4) (* 41 ?y2)) (* (- 50) x1)) 74)))) (exists ((?y4 Real)) (or (<= (+ (* 5 ?y2) (* (- 7) ?y1)) 26) (or (>= (+ (+ (* (- 37) ?y4) (* 6 ?y2)) (* 2 ?y1)) 67) (< (+ (+ (* (- 24) ?y4) (* (- 91) ?y2)) (* (- 67) ?y1)) (- 44))))))))))))))
(check-sat)
(exit)
